c "random instance"
p edges 150 2291
e 1 2
e 1 9
e 1 14
e 1 16
e 1 22
e 1 27
e 1 32
e 1 40
e 1 41
e 1 51
e 1 52
e 1 58
e 1 59
e 1 65
e 1 70
e 1 75
e 1 78
e 1 82
e 1 91
e 1 92
e 1 99
e 1 102
e 1 104
e 1 107
e 1 118
e 1 126
e 1 131
e 1 134
e 1 138
e 1 139
e 1 148
e 1 150
e 2 12
e 2 14
e 2 15
e 2 46
e 2 49
e 2 69
e 2 73
e 2 76
e 2 79
e 2 83
e 2 84
e 2 85
e 2 89
e 2 91
e 2 92
e 2 93
e 2 103
e 2 105
e 2 106
e 2 107
e 2 108
e 2 112
e 2 114
e 2 118
e 2 124
e 2 137
e 2 139
e 2 150
e 3 6
e 3 9
e 3 14
e 3 18
e 3 29
e 3 32
e 3 33
e 3 37
e 3 38
e 3 42
e 3 46
e 3 51
e 3 55
e 3 57
e 3 60
e 3 62
e 3 68
e 3 73
e 3 75
e 3 82
e 3 85
e 3 87
e 3 89
e 3 91
e 3 95
e 3 96
e 3 101
e 3 114
e 3 115
e 3 118
e 3 122
e 3 129
e 3 132
e 3 135
e 3 137
e 3 140
e 3 144
e 3 150
e 4 16
e 4 18
e 4 22
e 4 26
e 4 32
e 4 35
e 4 37
e 4 39
e 4 48
e 4 53
e 4 54
e 4 55
e 4 62
e 4 63
e 4 71
e 4 81
e 4 86
e 4 93
e 4 94
e 4 99
e 4 101
e 4 102
e 4 111
e 4 115
e 4 122
e 4 124
e 4 130
e 4 131
e 4 138
e 4 141
e 4 142
e 4 149
e 5 7
e 5 11
e 5 16
e 5 20
e 5 22
e 5 33
e 5 51
e 5 52
e 5 57
e 5 82
e 5 83
e 5 89
e 5 90
e 5 96
e 5 111
e 5 112
e 5 113
e 5 123
e 5 124
e 5 126
e 5 129
e 5 132
e 5 134
e 6 8
e 6 17
e 6 23
e 6 27
e 6 30
e 6 34
e 6 36
e 6 54
e 6 58
e 6 60
e 6 64
e 6 68
e 6 69
e 6 72
e 6 80
e 6 83
e 6 85
e 6 87
e 6 90
e 6 93
e 6 95
e 6 99
e 6 101
e 6 106
e 6 117
e 6 121
e 6 128
e 6 130
e 6 135
e 6 143
e 6 145
e 7 9
e 7 13
e 7 19
e 7 24
e 7 25
e 7 30
e 7 44
e 7 49
e 7 50
e 7 58
e 7 63
e 7 66
e 7 69
e 7 72
e 7 74
e 7 79
e 7 80
e 7 83
e 7 85
e 7 89
e 7 98
e 7 103
e 7 105
e 7 120
e 7 121
e 7 124
e 7 131
e 7 136
e 7 143
e 7 145
e 7 149
e 7 150
e 8 9
e 8 11
e 8 26
e 8 29
e 8 38
e 8 45
e 8 46
e 8 47
e 8 48
e 8 52
e 8 60
e 8 62
e 8 66
e 8 67
e 8 74
e 8 79
e 8 82
e 8 91
e 8 100
e 8 109
e 8 111
e 8 117
e 8 122
e 8 130
e 8 131
e 8 133
e 8 135
e 8 136
e 8 137
e 8 139
e 8 140
e 8 141
e 8 142
e 8 145
e 8 149
e 8 150
e 9 10
e 9 11
e 9 16
e 9 17
e 9 21
e 9 22
e 9 41
e 9 48
e 9 50
e 9 74
e 9 93
e 9 95
e 9 100
e 9 107
e 9 109
e 9 113
e 9 116
e 9 121
e 9 124
e 9 127
e 9 134
e 9 135
e 9 136
e 9 143
e 10 11
e 10 12
e 10 22
e 10 25
e 10 28
e 10 29
e 10 41
e 10 42
e 10 50
e 10 52
e 10 69
e 10 79
e 10 84
e 10 85
e 10 88
e 10 93
e 10 100
e 10 123
e 10 127
e 10 128
e 10 130
e 10 136
e 10 137
e 10 143
e 10 147
e 10 149
e 11 13
e 11 17
e 11 19
e 11 20
e 11 24
e 11 33
e 11 44
e 11 58
e 11 63
e 11 69
e 11 71
e 11 84
e 11 87
e 11 92
e 11 98
e 11 103
e 11 105
e 11 106
e 11 111
e 11 112
e 11 117
e 11 125
e 11 126
e 11 127
e 11 134
e 11 139
e 11 141
e 11 143
e 11 144
e 11 145
e 12 14
e 12 30
e 12 36
e 12 42
e 12 50
e 12 54
e 12 64
e 12 70
e 12 72
e 12 73
e 12 74
e 12 82
e 12 85
e 12 86
e 12 93
e 12 104
e 12 109
e 12 116
e 12 122
e 12 131
e 12 132
e 12 139
e 12 140
e 12 143
e 12 144
e 12 145
e 12 148
e 13 14
e 13 17
e 13 18
e 13 20
e 13 21
e 13 23
e 13 27
e 13 41
e 13 43
e 13 60
e 13 74
e 13 76
e 13 79
e 13 85
e 13 87
e 13 98
e 13 102
e 13 108
e 13 109
e 13 112
e 13 114
e 13 116
e 13 117
e 13 123
e 13 130
e 13 134
e 13 141
e 13 148
e 14 27
e 14 28
e 14 29
e 14 31
e 14 66
e 14 71
e 14 79
e 14 82
e 14 93
e 14 94
e 14 95
e 14 103
e 14 104
e 14 107
e 14 108
e 14 111
e 14 112
e 14 119
e 14 122
e 14 123
e 14 128
e 14 132
e 14 134
e 14 150
e 15 16
e 15 20
e 15 21
e 15 38
e 15 39
e 15 41
e 15 42
e 15 43
e 15 59
e 15 60
e 15 62
e 15 64
e 15 68
e 15 74
e 15 75
e 15 82
e 15 98
e 15 115
e 15 126
e 15 128
e 15 147
e 15 149
e 16 32
e 16 35
e 16 36
e 16 47
e 16 55
e 16 58
e 16 60
e 16 63
e 16 65
e 16 67
e 16 68
e 16 71
e 16 75
e 16 77
e 16 79
e 16 84
e 16 86
e 16 93
e 16 94
e 16 95
e 16 97
e 16 99
e 16 100
e 16 103
e 16 105
e 16 106
e 16 109
e 16 112
e 16 132
e 17 22
e 17 27
e 17 46
e 17 47
e 17 57
e 17 61
e 17 62
e 17 69
e 17 71
e 17 81
e 17 84
e 17 89
e 17 93
e 17 101
e 17 107
e 17 111
e 17 115
e 17 122
e 17 123
e 17 131
e 17 135
e 17 136
e 17 138
e 17 148
e 18 28
e 18 33
e 18 34
e 18 41
e 18 42
e 18 44
e 18 45
e 18 46
e 18 51
e 18 53
e 18 54
e 18 58
e 18 70
e 18 74
e 18 90
e 18 91
e 18 95
e 18 97
e 18 98
e 18 104
e 18 107
e 18 108
e 18 112
e 18 122
e 18 130
e 18 134
e 19 38
e 19 39
e 19 43
e 19 48
e 19 51
e 19 52
e 19 57
e 19 60
e 19 63
e 19 66
e 19 70
e 19 72
e 19 74
e 19 87
e 19 88
e 19 92
e 19 96
e 19 100
e 19 101
e 19 107
e 19 109
e 19 110
e 19 113
e 19 119
e 19 121
e 19 131
e 19 142
e 19 143
e 19 144
e 19 145
e 19 148
e 20 23
e 20 30
e 20 35
e 20 38
e 20 52
e 20 53
e 20 62
e 20 64
e 20 67
e 20 70
e 20 72
e 20 83
e 20 85
e 20 86
e 20 87
e 20 89
e 20 91
e 20 92
e 20 95
e 20 97
e 20 107
e 20 111
e 20 116
e 20 127
e 20 128
e 20 130
e 20 135
e 20 145
e 20 148
e 20 149
e 20 150
e 21 26
e 21 29
e 21 32
e 21 39
e 21 42
e 21 45
e 21 53
e 21 61
e 21 62
e 21 69
e 21 75
e 21 78
e 21 82
e 21 89
e 21 95
e 21 100
e 21 114
e 21 120
e 21 124
e 21 135
e 21 136
e 21 137
e 21 138
e 21 143
e 21 147
e 21 149
e 22 23
e 22 27
e 22 30
e 22 36
e 22 39
e 22 40
e 22 42
e 22 48
e 22 56
e 22 57
e 22 58
e 22 59
e 22 64
e 22 74
e 22 92
e 22 94
e 22 95
e 22 102
e 22 104
e 22 114
e 22 116
e 22 119
e 22 124
e 22 125
e 22 129
e 22 137
e 22 147
e 23 29
e 23 34
e 23 45
e 23 52
e 23 57
e 23 68
e 23 76
e 23 77
e 23 80
e 23 84
e 23 85
e 23 87
e 23 94
e 23 99
e 23 101
e 23 104
e 23 105
e 23 109
e 23 116
e 23 128
e 23 133
e 23 136
e 23 139
e 23 143
e 23 144
e 24 28
e 24 29
e 24 31
e 24 32
e 24 35
e 24 36
e 24 38
e 24 41
e 24 42
e 24 53
e 24 61
e 24 68
e 24 79
e 24 81
e 24 83
e 24 84
e 24 97
e 24 99
e 24 100
e 24 116
e 24 121
e 24 134
e 24 137
e 24 139
e 24 140
e 24 148
e 24 150
e 25 26
e 25 29
e 25 35
e 25 37
e 25 38
e 25 52
e 25 53
e 25 54
e 25 57
e 25 61
e 25 66
e 25 75
e 25 77
e 25 86
e 25 87
e 25 99
e 25 110
e 25 128
e 25 130
e 25 137
e 25 139
e 25 141
e 25 144
e 25 147
e 26 29
e 26 30
e 26 42
e 26 45
e 26 48
e 26 58
e 26 61
e 26 62
e 26 69
e 26 72
e 26 74
e 26 77
e 26 80
e 26 87
e 26 89
e 26 95
e 26 98
e 26 100
e 26 109
e 26 115
e 26 116
e 26 119
e 26 120
e 26 122
e 26 140
e 26 142
e 27 30
e 27 33
e 27 37
e 27 40
e 27 46
e 27 47
e 27 54
e 27 58
e 27 59
e 27 60
e 27 68
e 27 69
e 27 76
e 27 81
e 27 87
e 27 94
e 27 98
e 27 103
e 27 105
e 27 112
e 27 114
e 27 116
e 27 118
e 27 134
e 27 146
e 27 147
e 27 148
e 27 150
e 28 42
e 28 47
e 28 52
e 28 53
e 28 62
e 28 63
e 28 76
e 28 77
e 28 85
e 28 87
e 28 90
e 28 96
e 28 99
e 28 118
e 28 136
e 28 140
e 28 145
e 29 30
e 29 34
e 29 36
e 29 44
e 29 45
e 29 47
e 29 50
e 29 51
e 29 53
e 29 66
e 29 68
e 29 69
e 29 71
e 29 82
e 29 89
e 29 93
e 29 94
e 29 97
e 29 101
e 29 102
e 29 107
e 29 124
e 29 128
e 29 130
e 29 131
e 29 135
e 29 140
e 29 145
e 30 38
e 30 50
e 30 51
e 30 80
e 30 85
e 30 92
e 30 99
e 30 102
e 30 104
e 30 110
e 30 113
e 30 121
e 30 125
e 30 133
e 30 140
e 30 145
e 31 37
e 31 46
e 31 60
e 31 65
e 31 76
e 31 78
e 31 80
e 31 81
e 31 82
e 31 85
e 31 88
e 31 92
e 31 98
e 31 102
e 31 108
e 31 113
e 31 115
e 31 128
e 31 129
e 31 140
e 31 144
e 31 150
e 32 33
e 32 39
e 32 52
e 32 53
e 32 57
e 32 60
e 32 65
e 32 67
e 32 73
e 32 77
e 32 85
e 32 91
e 32 108
e 32 109
e 32 116
e 32 119
e 32 120
e 32 132
e 32 135
e 32 136
e 32 138
e 32 140
e 33 38
e 33 39
e 33 53
e 33 58
e 33 61
e 33 62
e 33 66
e 33 70
e 33 72
e 33 75
e 33 79
e 33 87
e 33 89
e 33 94
e 33 95
e 33 98
e 33 104
e 33 109
e 33 110
e 33 115
e 33 116
e 33 118
e 33 122
e 33 129
e 33 131
e 33 138
e 33 139
e 33 141
e 33 142
e 34 40
e 34 42
e 34 60
e 34 75
e 34 76
e 34 77
e 34 85
e 34 90
e 34 93
e 34 101
e 34 102
e 34 103
e 34 104
e 34 111
e 34 112
e 34 123
e 34 130
e 34 134
e 34 138
e 34 139
e 35 36
e 35 41
e 35 65
e 35 67
e 35 71
e 35 75
e 35 76
e 35 79
e 35 81
e 35 91
e 35 98
e 35 112
e 35 114
e 35 127
e 35 129
e 35 133
e 35 134
e 35 138
e 35 140
e 35 143
e 36 37
e 36 41
e 36 43
e 36 48
e 36 50
e 36 57
e 36 60
e 36 67
e 36 71
e 36 72
e 36 73
e 36 78
e 36 79
e 36 89
e 36 93
e 36 98
e 36 104
e 36 124
e 36 132
e 36 136
e 36 139
e 36 140
e 36 141
e 36 143
e 36 144
e 36 147
e 37 45
e 37 56
e 37 58
e 37 60
e 37 71
e 37 76
e 37 80
e 37 81
e 37 85
e 37 92
e 37 93
e 37 96
e 37 100
e 37 103
e 37 106
e 37 111
e 37 114
e 37 126
e 37 130
e 37 137
e 37 146
e 37 148
e 38 44
e 38 46
e 38 65
e 38 66
e 38 68
e 38 69
e 38 73
e 38 75
e 38 80
e 38 84
e 38 85
e 38 99
e 38 111
e 38 114
e 38 122
e 38 126
e 38 128
e 38 129
e 38 132
e 38 133
e 38 135
e 38 137
e 38 141
e 38 144
e 38 149
e 39 45
e 39 46
e 39 52
e 39 53
e 39 55
e 39 63
e 39 71
e 39 77
e 39 79
e 39 81
e 39 86
e 39 88
e 39 108
e 39 118
e 39 119
e 39 124
e 39 127
e 39 128
e 39 129
e 39 131
e 39 132
e 39 135
e 39 136
e 39 143
e 39 145
e 39 150
e 40 42
e 40 44
e 40 45
e 40 49
e 40 56
e 40 59
e 40 66
e 40 69
e 40 76
e 40 80
e 40 81
e 40 91
e 40 96
e 40 98
e 40 107
e 40 113
e 40 125
e 40 128
e 40 132
e 40 134
e 40 137
e 40 140
e 40 143
e 40 148
e 40 149
e 40 150
e 41 56
e 41 57
e 41 60
e 41 64
e 41 66
e 41 67
e 41 71
e 41 75
e 41 80
e 41 83
e 41 84
e 41 91
e 41 94
e 41 112
e 41 113
e 41 116
e 41 119
e 41 122
e 41 127
e 41 130
e 41 132
e 41 134
e 41 145
e 41 147
e 41 148
e 41 150
e 42 45
e 42 47
e 42 49
e 42 56
e 42 58
e 42 60
e 42 66
e 42 76
e 42 79
e 42 82
e 42 86
e 42 90
e 42 92
e 42 93
e 42 95
e 42 99
e 42 107
e 42 116
e 42 125
e 42 132
e 42 136
e 42 138
e 42 142
e 42 144
e 42 146
e 42 147
e 42 148
e 43 46
e 43 52
e 43 55
e 43 61
e 43 67
e 43 68
e 43 70
e 43 74
e 43 88
e 43 91
e 43 94
e 43 96
e 43 102
e 43 106
e 43 110
e 43 118
e 43 126
e 43 127
e 43 131
e 43 139
e 43 144
e 43 148
e 44 45
e 44 47
e 44 66
e 44 68
e 44 69
e 44 71
e 44 74
e 44 79
e 44 88
e 44 100
e 44 106
e 44 110
e 44 111
e 44 112
e 44 113
e 44 115
e 44 122
e 44 126
e 44 127
e 44 131
e 44 141
e 44 142
e 44 145
e 44 150
e 45 53
e 45 54
e 45 57
e 45 61
e 45 62
e 45 78
e 45 86
e 45 87
e 45 89
e 45 101
e 45 107
e 45 112
e 45 118
e 45 120
e 45 124
e 45 134
e 45 135
e 45 136
e 45 138
e 45 142
e 46 49
e 46 66
e 46 68
e 46 69
e 46 70
e 46 75
e 46 80
e 46 88
e 46 91
e 46 92
e 46 95
e 46 101
e 46 102
e 46 107
e 46 118
e 46 127
e 46 136
e 46 147
e 47 50
e 47 58
e 47 73
e 47 76
e 47 80
e 47 81
e 47 88
e 47 90
e 47 93
e 47 95
e 47 96
e 47 98
e 47 103
e 47 106
e 47 116
e 47 124
e 47 128
e 47 131
e 47 140
e 47 141
e 47 145
e 47 149
e 47 150
e 48 49
e 48 53
e 48 58
e 48 59
e 48 60
e 48 68
e 48 70
e 48 72
e 48 75
e 48 89
e 48 91
e 48 94
e 48 96
e 48 97
e 48 98
e 48 101
e 48 103
e 48 106
e 48 107
e 48 111
e 48 113
e 48 115
e 48 117
e 48 118
e 48 123
e 48 124
e 48 128
e 48 129
e 48 131
e 48 134
e 49 51
e 49 65
e 49 74
e 49 77
e 49 81
e 49 83
e 49 88
e 49 95
e 49 100
e 49 102
e 49 105
e 49 108
e 49 110
e 49 124
e 49 125
e 49 126
e 49 143
e 49 146
e 49 148
e 50 52
e 50 57
e 50 58
e 50 60
e 50 61
e 50 63
e 50 70
e 50 79
e 50 88
e 50 93
e 50 98
e 50 102
e 50 106
e 50 111
e 50 112
e 50 115
e 50 116
e 50 119
e 50 120
e 50 122
e 50 127
e 50 132
e 50 138
e 50 139
e 50 142
e 50 145
e 50 150
e 51 55
e 51 56
e 51 63
e 51 74
e 51 93
e 51 100
e 51 105
e 51 117
e 51 119
e 51 123
e 51 134
e 51 142
e 51 143
e 51 145
e 52 58
e 52 59
e 52 64
e 52 75
e 52 77
e 52 78
e 52 84
e 52 85
e 52 91
e 52 97
e 52 107
e 52 108
e 52 114
e 52 115
e 52 118
e 52 119
e 52 122
e 52 131
e 52 132
e 52 139
e 52 143
e 52 144
e 53 58
e 53 65
e 53 71
e 53 77
e 53 82
e 53 85
e 53 91
e 53 106
e 53 107
e 53 109
e 53 111
e 53 116
e 53 124
e 53 131
e 53 132
e 53 135
e 53 138
e 53 142
e 54 61
e 54 62
e 54 63
e 54 78
e 54 79
e 54 80
e 54 86
e 54 88
e 54 92
e 54 95
e 54 98
e 54 100
e 54 104
e 54 105
e 54 109
e 54 113
e 54 125
e 54 135
e 54 147
e 54 148
e 55 56
e 55 57
e 55 60
e 55 67
e 55 70
e 55 71
e 55 74
e 55 76
e 55 81
e 55 86
e 55 92
e 55 94
e 55 97
e 55 100
e 55 119
e 55 120
e 55 125
e 55 128
e 55 129
e 55 136
e 55 141
e 55 145
e 55 146
e 55 147
e 55 148
e 56 79
e 56 82
e 56 90
e 56 91
e 56 94
e 56 104
e 56 106
e 56 109
e 56 117
e 56 126
e 56 127
e 56 128
e 56 131
e 56 135
e 56 137
e 56 141
e 56 142
e 56 145
e 57 74
e 57 86
e 57 89
e 57 97
e 57 99
e 57 106
e 57 110
e 57 125
e 57 126
e 57 133
e 57 134
e 57 138
e 57 143
e 57 145
e 58 59
e 58 68
e 58 78
e 58 82
e 58 84
e 58 86
e 58 88
e 58 99
e 58 101
e 58 103
e 58 104
e 58 108
e 58 115
e 58 117
e 58 119
e 58 123
e 58 127
e 58 131
e 58 136
e 58 144
e 58 148
e 59 64
e 59 69
e 59 71
e 59 72
e 59 75
e 59 77
e 59 78
e 59 84
e 59 89
e 59 96
e 59 105
e 59 111
e 59 113
e 59 119
e 59 121
e 59 122
e 59 137
e 59 138
e 59 139
e 59 142
e 59 150
e 60 62
e 60 66
e 60 71
e 60 73
e 60 76
e 60 77
e 60 80
e 60 86
e 60 90
e 60 104
e 60 115
e 60 116
e 60 117
e 60 121
e 60 132
e 60 138
e 60 139
e 60 149
e 61 64
e 61 69
e 61 73
e 61 87
e 61 88
e 61 99
e 61 102
e 61 104
e 61 109
e 61 112
e 61 117
e 61 124
e 61 129
e 61 130
e 61 145
e 61 148
e 61 149
e 61 150
e 62 63
e 62 68
e 62 69
e 62 70
e 62 73
e 62 76
e 62 77
e 62 84
e 62 88
e 62 106
e 62 111
e 62 121
e 62 122
e 62 125
e 62 129
e 62 131
e 62 136
e 62 147
e 63 75
e 63 76
e 63 81
e 63 87
e 63 88
e 63 89
e 63 90
e 63 91
e 63 93
e 63 94
e 63 95
e 63 96
e 63 98
e 63 110
e 63 118
e 63 121
e 63 127
e 63 128
e 63 132
e 63 137
e 63 138
e 63 143
e 63 145
e 63 147
e 63 148
e 64 69
e 64 84
e 64 86
e 64 91
e 64 92
e 64 98
e 64 99
e 64 100
e 64 101
e 64 102
e 64 104
e 64 105
e 64 127
e 64 128
e 64 145
e 64 146
e 64 148
e 64 149
e 65 69
e 65 71
e 65 74
e 65 75
e 65 84
e 65 90
e 65 91
e 65 93
e 65 99
e 65 109
e 65 113
e 65 114
e 65 117
e 65 118
e 65 125
e 65 136
e 65 137
e 65 143
e 65 149
e 65 150
e 66 69
e 66 71
e 66 82
e 66 84
e 66 85
e 66 102
e 66 109
e 66 111
e 66 117
e 66 119
e 66 132
e 66 135
e 66 145
e 66 146
e 67 73
e 67 74
e 67 75
e 67 80
e 67 93
e 67 96
e 67 97
e 67 99
e 67 106
e 67 107
e 67 108
e 67 111
e 67 113
e 67 121
e 67 125
e 67 131
e 67 134
e 67 136
e 67 139
e 67 143
e 67 148
e 68 75
e 68 80
e 68 85
e 68 95
e 68 101
e 68 103
e 68 105
e 68 106
e 68 107
e 68 109
e 68 116
e 68 117
e 68 119
e 68 121
e 68 126
e 68 128
e 68 130
e 68 132
e 68 144
e 68 150
e 69 79
e 69 84
e 69 90
e 69 95
e 69 97
e 69 100
e 69 109
e 69 111
e 69 117
e 69 142
e 69 143
e 69 150
e 70 73
e 70 78
e 70 84
e 70 85
e 70 89
e 70 93
e 70 94
e 70 98
e 70 105
e 70 114
e 70 127
e 70 129
e 70 131
e 70 133
e 70 134
e 70 139
e 70 141
e 70 142
e 70 144
e 71 75
e 71 76
e 71 84
e 71 85
e 71 92
e 71 95
e 71 96
e 71 114
e 71 117
e 71 126
e 71 133
e 71 137
e 71 138
e 71 144
e 71 145
e 71 146
e 72 73
e 72 88
e 72 89
e 72 93
e 72 94
e 72 98
e 72 99
e 72 100
e 72 102
e 72 107
e 72 114
e 72 115
e 72 116
e 72 122
e 72 123
e 72 127
e 72 139
e 72 141
e 72 142
e 72 148
e 73 90
e 73 93
e 73 94
e 73 103
e 73 107
e 73 110
e 73 112
e 73 114
e 73 118
e 73 121
e 73 131
e 73 132
e 73 144
e 73 149
e 74 79
e 74 88
e 74 89
e 74 119
e 74 128
e 74 132
e 74 141
e 74 150
e 75 77
e 75 81
e 75 94
e 75 99
e 75 106
e 75 110
e 75 126
e 75 134
e 75 138
e 75 140
e 75 144
e 75 146
e 75 149
e 75 150
e 76 87
e 76 88
e 76 91
e 76 92
e 76 95
e 76 99
e 76 103
e 76 105
e 76 112
e 76 126
e 76 128
e 76 137
e 76 138
e 77 84
e 77 85
e 77 93
e 77 95
e 77 96
e 77 99
e 77 103
e 77 107
e 77 128
e 77 130
e 77 139
e 77 140
e 78 85
e 78 87
e 78 88
e 78 89
e 78 93
e 78 100
e 78 113
e 78 116
e 78 119
e 78 120
e 78 121
e 78 125
e 78 128
e 78 137
e 78 142
e 78 146
e 78 147
e 79 82
e 79 88
e 79 97
e 79 99
e 79 103
e 79 106
e 79 115
e 79 119
e 79 122
e 79 124
e 79 135
e 79 136
e 79 139
e 79 141
e 80 82
e 80 83
e 80 86
e 80 92
e 80 93
e 80 101
e 80 104
e 80 118
e 80 124
e 80 126
e 80 129
e 80 131
e 80 135
e 80 136
e 80 143
e 80 144
e 81 84
e 81 85
e 81 89
e 81 96
e 81 103
e 81 111
e 81 118
e 81 119
e 81 122
e 81 126
e 81 130
e 81 131
e 81 145
e 81 149
e 82 90
e 82 91
e 82 93
e 82 100
e 82 105
e 82 108
e 82 119
e 82 120
e 82 126
e 82 128
e 82 130
e 82 132
e 82 135
e 83 85
e 83 86
e 83 101
e 83 105
e 83 124
e 83 125
e 83 126
e 83 129
e 83 133
e 83 135
e 83 148
e 84 87
e 84 94
e 84 104
e 84 110
e 84 114
e 84 118
e 84 120
e 84 123
e 84 125
e 84 137
e 84 140
e 85 86
e 85 90
e 85 100
e 85 105
e 85 108
e 85 109
e 85 112
e 85 116
e 85 119
e 85 122
e 85 127
e 85 140
e 85 141
e 85 144
e 85 145
e 86 96
e 86 100
e 86 110
e 86 111
e 86 126
e 86 128
e 86 130
e 86 141
e 86 150
e 87 90
e 87 92
e 87 101
e 87 107
e 87 108
e 87 119
e 87 120
e 87 124
e 87 132
e 87 137
e 87 145
e 87 149
e 88 91
e 88 97
e 88 98
e 88 101
e 88 104
e 88 107
e 88 114
e 88 119
e 88 121
e 88 124
e 88 131
e 88 138
e 89 92
e 89 108
e 89 109
e 89 111
e 89 115
e 89 124
e 89 129
e 89 132
e 89 134
e 89 135
e 89 136
e 89 142
e 89 143
e 89 148
e 90 96
e 90 109
e 90 116
e 90 123
e 90 131
e 90 135
e 90 142
e 90 143
e 90 144
e 91 105
e 91 108
e 91 109
e 91 113
e 91 114
e 91 115
e 91 116
e 91 117
e 91 118
e 91 122
e 91 124
e 91 126
e 92 104
e 92 114
e 92 115
e 92 117
e 92 119
e 92 122
e 92 125
e 92 142
e 92 147
e 92 148
e 92 149
e 93 97
e 93 105
e 93 110
e 93 117
e 93 120
e 93 122
e 93 125
e 93 130
e 93 134
e 93 144
e 93 147
e 94 95
e 94 106
e 94 113
e 94 116
e 94 120
e 94 121
e 94 125
e 94 135
e 94 137
e 94 146
e 95 97
e 95 105
e 95 106
e 95 108
e 95 109
e 95 114
e 95 117
e 95 131
e 95 135
e 95 138
e 95 144
e 95 149
e 95 150
e 96 100
e 96 102
e 96 103
e 96 111
e 96 113
e 96 114
e 96 117
e 96 120
e 96 124
e 96 125
e 96 140
e 96 148
e 97 102
e 97 103
e 97 109
e 97 114
e 97 127
e 97 130
e 97 132
e 97 134
e 97 136
e 97 142
e 97 146
e 97 150
e 98 111
e 98 112
e 98 123
e 98 124
e 98 128
e 98 134
e 98 136
e 98 138
e 98 144
e 98 147
e 99 102
e 99 105
e 99 106
e 99 110
e 99 113
e 99 117
e 99 121
e 99 130
e 99 137
e 99 143
e 99 145
e 100 105
e 100 107
e 100 108
e 100 130
e 100 132
e 100 148
e 100 150
e 101 102
e 101 104
e 101 107
e 101 109
e 101 116
e 101 117
e 101 120
e 101 124
e 101 131
e 101 137
e 101 148
e 102 103
e 102 104
e 102 124
e 102 139
e 102 141
e 102 144
e 102 148
e 102 150
e 103 106
e 103 109
e 103 111
e 103 112
e 103 114
e 103 122
e 103 127
e 103 137
e 103 138
e 103 147
e 104 113
e 104 114
e 104 128
e 104 129
e 104 130
e 104 131
e 104 135
e 104 144
e 104 148
e 104 150
e 105 106
e 105 107
e 105 109
e 105 111
e 105 130
e 105 132
e 105 133
e 105 134
e 105 137
e 105 149
e 106 110
e 106 116
e 106 117
e 106 118
e 106 120
e 106 123
e 106 127
e 106 131
e 106 132
e 106 133
e 106 139
e 106 140
e 106 142
e 106 146
e 107 115
e 107 117
e 107 119
e 107 124
e 107 132
e 107 133
e 107 135
e 107 139
e 108 109
e 108 117
e 108 131
e 108 133
e 108 142
e 108 144
e 109 111
e 109 116
e 109 119
e 109 123
e 109 137
e 109 140
e 109 144
e 109 148
e 109 149
e 110 116
e 110 123
e 110 130
e 110 138
e 110 145
e 110 149
e 111 114
e 111 116
e 111 118
e 111 124
e 111 128
e 111 131
e 111 132
e 111 135
e 111 138
e 111 139
e 111 140
e 111 143
e 111 145
e 112 122
e 112 123
e 112 124
e 112 125
e 112 130
e 112 132
e 112 137
e 112 146
e 112 150
e 113 116
e 113 117
e 113 123
e 113 132
e 113 139
e 113 142
e 113 146
e 113 149
e 114 117
e 114 129
e 114 138
e 114 144
e 115 117
e 115 118
e 115 120
e 115 127
e 115 129
e 115 140
e 115 147
e 116 126
e 116 132
e 116 137
e 116 138
e 116 139
e 117 118
e 117 126
e 117 127
e 117 129
e 117 136
e 117 142
e 118 124
e 118 128
e 118 136
e 118 139
e 118 147
e 118 149
e 119 128
e 119 131
e 119 136
e 119 146
e 120 131
e 120 137
e 120 143
e 120 144
e 120 146
e 120 147
e 121 123
e 121 142
e 121 144
e 122 148
e 123 125
e 123 127
e 123 135
e 123 141
e 123 144
e 123 147
e 123 149
e 124 126
e 124 128
e 124 129
e 124 138
e 124 140
e 124 147
e 124 148
e 125 126
e 125 137
e 125 139
e 125 141
e 125 142
e 125 145
e 125 146
e 126 128
e 126 129
e 126 131
e 126 137
e 126 140
e 126 150
e 127 129
e 127 130
e 127 132
e 127 137
e 127 143
e 127 150
e 128 133
e 129 130
e 129 136
e 129 141
e 129 143
e 129 145
e 130 138
e 130 143
e 131 133
e 131 135
e 131 139
e 131 144
e 131 148
e 132 133
e 132 142
e 132 143
e 133 135
e 133 143
e 134 139
e 134 140
e 134 141
e 134 150
e 135 140
e 135 143
e 135 149
e 135 150
e 136 141
e 136 147
e 137 144
e 137 147
e 137 148
e 138 139
e 138 140
e 138 145
e 138 146
e 139 142
e 139 146
e 139 148
e 139 149
e 140 142
e 140 144
e 140 145
e 140 146
e 140 147
e 141 144
e 142 143
e 142 144
e 142 146
e 142 147
e 143 145
e 143 147
e 147 149
e 149 150
